30	100	100	100
59	33	100
69	60	100
7	28	100
57	28	100
7	89	100
60	81	100
50	14	100
47	59	100
76	49	100
29	9	100
27	92	100
58	88	100
62	29	100
17	57	100
46	69	100
49	7	100
56	7	100
8	84	100
82	97	100
86	86	100
15	11	100
31	21	100
86	8	100
79	97	100
66	9	100
78	66	100
77	29	100
44	36	100
47	31	100
95	51	100
